81197.7
76 69 144 145 181 8 165 138 157 130 110 150 0 68 1 24 92 31 74 106 33 79 88 2 142 47 102 30 151 61 111 189 154 54 91 78 123 136 160 58 36 172 188 94 132 34 155 101 60 183 158 10 41 164 71 3 7 171 72 27 178 15 89 9 97 51 75 99 5 133 125 29 139 80 25 44 19 185 28 63 35 112 53 116 159 62 14 162 177 103 95 38 168 199 70 90 32 134 192 148 93 16 104 48 77 107 170 56 81 163 149 100 198 152 59 82 186 167 40 135 169 143 193 124 131 176 121 187 21 173 20 166 119 126 73 128 65 39 6 43 120 122 66 127 46 184 57 118 17 23 197 84 49 105 179 153 96 26 141 50 117 194 86 175 37 52 174 64 83 55 4 22 87 191 180 190 98 108 113 67 18 85 13 114 11 115 182 42 161 109 146 137 12 129 196 45 156 140 195 147 
